0,197,58,106,125,91,68,74,168,92,60
197,0,50,109,118,121,43,174,38,200,89
58,50,0,166,63,93,156,171,48,30,104
106,109,166,0,32,117,130,134,105,68,74
125,118,63,32,0,117,88,130,109,166,165
91,121,93,117,117,0,178,28,173,156,31
68,43,156,130,88,178,0,81,59,37,121
74,174,171,134,130,28,81,0,108,113,33
168,38,48,105,109,173,59,108,0,113,139
92,200,30,68,166,156,37,113,113,0,138
60,89,104,74,165,31,121,33,139,138,0
